n_res = 4;
rc = [ 24, 21, 20, 21 ];
n_tasks = 30;
d = [ 6, 1, 10, 7, 3, 9, 8, 2, 9, 8, 9, 5, 10, 8, 3, 8, 5, 6, 3, 3, 6, 1, 6, 2, 2, 5, 1, 6, 8, 5 ];
rr = [| 4, 1, 3, 8, 10, 4, 1, 6, 10, 6, 1, 6, 3, 5, 10, 6, 3, 1, 10, 4, 6, 10, 2, 4, 10, 6, 7, 3, 7, 7
      | 10, 9, 5, 4, 2, 4, 4, 1, 6, 5, 4, 1, 8, 10, 1, 4, 9, 1, 1, 10, 6, 2, 7, 6, 1, 10, 4, 6, 8, 6
      | 2, 8, 6, 4, 7, 8, 6, 3, 10, 3, 1, 2, 4, 6, 3, 7, 6, 8, 1, 6, 8, 4, 5, 8, 5, 2, 3, 5, 5, 10
      | 2, 1, 4, 6, 8, 1, 6, 4, 2, 2, 4, 2, 5, 10, 10, 1, 4, 1, 10, 5, 7, 9, 8, 2, 5, 3, 3, 3, 1, 1 |];
suc = [ { 2 }, 
        { 3 }, 
        { 4 }, 
        { 5 }, 
        { 6 }, 
        { 7 }, 
        { 8 }, 
        { 9 }, 
        { 10 }, 
        { 11 }, 
        { 12 }, 
        { 13 }, 
        { 14 }, 
        { 15 }, 
        { 16 }, 
        { 17 }, 
        { 18 }, 
        { 19 }, 
        { 20 }, 
        { 21 }, 
        { 22 }, 
        { 23 }, 
        { 24 }, 
        { 25 }, 
        { 26 }, 
        { 27 }, 
        { 28 }, 
        { 29 }, 
        { 30 }, 
        {  }]; 
